solution status: time limit reached
objective value:                                41084
NEG_B_5_5                                           1 	(obj:0)
POS_B_6_5                                           1 	(obj:0)
POS_B_7_5                                           1 	(obj:0)
POS_A_8_1                                           1 	(obj:0)
NEG_D_3_1                                           1 	(obj:0)
NEG_B_4_0                                           1 	(obj:0)
POS_D_4_5                                           1 	(obj:0)
POS_B_0_0                                           1 	(obj:0)
POS_D_1_0                                           1 	(obj:0)
POS_D_1_1                                           1 	(obj:0)
POS_D_1_2                                           1 	(obj:0)
POS_D_1_3                                           1 	(obj:0)
POS_D_1_4                                           1 	(obj:0)
POS_B_1_3                                           1 	(obj:0)
POS_B_1_4                                           1 	(obj:0)
POS_B_1_5                                           1 	(obj:0)
POS_C_1_0                                           1 	(obj:0)
POS_C_1_1                                           1 	(obj:0)
POS_C_1_2                                           1 	(obj:0)
POS_C_1_3                                           1 	(obj:0)
NEG_C_1_4                                           1 	(obj:0)
POS_C_1_5                                           1 	(obj:0)
POS_A_2_0                                           1 	(obj:0)
NEG_A_2_2                                           1 	(obj:0)
POS_B_2_0                                           1 	(obj:0)
NEG_B_2_1                                           1 	(obj:0)
NEG_B_2_2                                           1 	(obj:0)
POS_B_2_3                                           1 	(obj:0)
ABS_ALT_W_0_15                                      1 	(obj:1)
ABS_ALT_W_1_10                                      1 	(obj:1)
ABS_ALT_W_1_11                                      1 	(obj:1)
ABS_ALT_W_1_12                                      1 	(obj:1)
ABS_ALT_W_1_13                                      1 	(obj:1)
ABS_ALT_W_1_18                                      1 	(obj:1)
ABS_ALT_W_1_19                                      1 	(obj:1)
ABS_ALT_W_1_20                                      1 	(obj:1)
ABS_ALT_W_1_3                                       1 	(obj:1)
ABS_ALT_W_1_4                                       1 	(obj:1)
ABS_ALT_W_1_5                                       1 	(obj:1)
ABS_ALT_W_1_6                                       1 	(obj:1)
ABS_ALT_W_1_7                                       1 	(obj:1)
ABS_ALT_W_1_8                                       1 	(obj:1)
ABS_ALT_W_1_9                                       1 	(obj:1)
ABS_ALT_W_2_0                                       1 	(obj:1)
ABS_ALT_W_2_15                                      1 	(obj:1)
ABS_ALT_W_2_16                                      1 	(obj:1)
ABS_ALT_W_2_17                                      1 	(obj:1)
ABS_ALT_W_2_18                                      1 	(obj:1)
ABS_ALT_W_2_2                                       1 	(obj:1)
ABS_ALT_W_3_10                                      1 	(obj:1)
ABS_ALT_W_4_14                                      1 	(obj:1)
ABS_ALT_W_4_15                                      1 	(obj:1)
ABS_ALT_W_5_20                                      1 	(obj:1)
ABS_ALT_W_6_20                                      1 	(obj:1)
ABS_ALT_W_7_20                                      1 	(obj:1)
ABS_ALT_W_8_1                                       1 	(obj:1)
RESIDUAL_0_0_0                                      1 	(obj:1000)
RESIDUAL_0_1_1                                      1 	(obj:1000)
RESIDUAL_0_1_3                                      1 	(obj:1000)
RESIDUAL_0_2_6                                      1 	(obj:1000)
RESIDUAL_1_0_1                                      1 	(obj:1000)
RESIDUAL_1_1_0                                      1 	(obj:1000)
RESIDUAL_1_2_3                                      1 	(obj:1000)
RESIDUAL_1_3_0                                      1 	(obj:1000)
RESIDUAL_1_4_3                                      1 	(obj:1000)
RESIDUAL_1_5_4                                      1 	(obj:1000)
RESIDUAL_1_5_6                                      1 	(obj:1000)
RESIDUAL_1_6_4                                      1 	(obj:1000)
RESIDUAL_1_7_4                                      1 	(obj:1000)
RESIDUAL_2_3_1                                      1 	(obj:1000)
RESIDUAL_2_6_0                                      1 	(obj:1000)
RESIDUAL_2_7_3                                      1 	(obj:1000)
RESIDUAL_2_8_6                                      1 	(obj:1000)
RESIDUAL_3_0_1                                      1 	(obj:1000)
RESIDUAL_3_1_2                                      1 	(obj:1000)
RESIDUAL_3_1_4                                      1 	(obj:1000)
RESIDUAL_3_2_7                                      1 	(obj:1000)
RESIDUAL_4_1_5                                      1 	(obj:1000)
RESIDUAL_4_1_6                                      1 	(obj:1000)
RESIDUAL_4_1_7                                      1 	(obj:1000)
RESIDUAL_4_3_1                                      1 	(obj:1000)
RESIDUAL_4_4_4                                      1 	(obj:1000)
RESIDUAL_4_5_7                                      1 	(obj:1000)
RESIDUAL_5_4_1                                      1 	(obj:1000)
RESIDUAL_5_6_1                                      1 	(obj:1000)
RESIDUAL_5_7_4                                      1 	(obj:1000)
RESIDUAL_5_8_7                                      1 	(obj:1000)
RESIDUAL_6_0_2                                      1 	(obj:1000)
RESIDUAL_6_1_5                                      1 	(obj:1000)
RESIDUAL_6_2_8                                      1 	(obj:1000)
RESIDUAL_6_4_1                                      1 	(obj:1000)
RESIDUAL_7_3_2                                      1 	(obj:1000)
RESIDUAL_7_4_1                                      1 	(obj:1000)
RESIDUAL_7_4_5                                      1 	(obj:1000)
RESIDUAL_7_5_8                                      1 	(obj:1000)
RESIDUAL_8_6_2                                      1 	(obj:1000)
RESIDUAL_8_7_5                                      1 	(obj:1000)
V_2_9                                               1 	(obj:0)
W_4_14                                              1 	(obj:0)
ABS_W_4_14                                          1 	(obj:0)
W_4_15                                             -1 	(obj:0)
ABS_W_4_15                                          1 	(obj:0)
ABS_V_2_9                                           1 	(obj:0)
V_2_10                                             -1 	(obj:0)
U_4_20                                              1 	(obj:0)
ABS_U_4_20                                          1 	(obj:0)
U_4_3                                              -1 	(obj:0)
ABS_U_4_3                                           1 	(obj:0)
ABS_V_2_10                                          1 	(obj:0)
V_2_11                                             -1 	(obj:0)
V_0_9                                               1 	(obj:0)
ABS_V_0_9                                           1 	(obj:0)
ABS_V_2_11                                          1 	(obj:0)
V_2_12                                              1 	(obj:0)
W_5_20                                             -1 	(obj:0)
ABS_W_5_20                                          1 	(obj:0)
ABS_V_2_12                                          1 	(obj:0)
ABS_ALT_U_0_3                                       1 	(obj:1)
W_6_20                                              1 	(obj:0)
ABS_W_6_20                                          1 	(obj:0)
W_7_20                                              1 	(obj:0)
ABS_W_7_20                                          1 	(obj:0)
W_8_1                                               1 	(obj:0)
ABS_W_8_1                                           1 	(obj:0)
ABS_ALT_U_1_10                                      1 	(obj:1)
V_1_3                                               1 	(obj:0)
ABS_V_1_3                                           1 	(obj:0)
V_1_4                                               1 	(obj:0)
ABS_V_1_4                                           1 	(obj:0)
V_1_5                                               1 	(obj:0)
ABS_V_1_5                                           1 	(obj:0)
V_1_6                                               1 	(obj:0)
ABS_V_1_6                                           1 	(obj:0)
V_1_7                                               1 	(obj:0)
ABS_V_1_7                                           1 	(obj:0)
V_1_12                                              1 	(obj:0)
ABS_V_1_12                                          1 	(obj:0)
V_1_13                                              1 	(obj:0)
ABS_V_1_13                                          1 	(obj:0)
ABS_ALT_U_1_11                                      1 	(obj:1)
ABS_ALT_U_1_12                                      1 	(obj:1)
V_1_14                                              1 	(obj:0)
ABS_V_1_14                                          1 	(obj:0)
V_1_15                                              1 	(obj:0)
W_0_15                                              1 	(obj:0)
ABS_V_1_15                                          1 	(obj:0)
ABS_W_0_15                                          1 	(obj:0)
V_1_16                                              1 	(obj:0)
ABS_V_1_16                                          1 	(obj:0)
V_1_17                                              1 	(obj:0)
ABS_V_1_17                                          1 	(obj:0)
V_1_18                                              1 	(obj:0)
ABS_V_1_18                                          1 	(obj:0)
V_1_19                                             -1 	(obj:0)
ABS_V_1_19                                          1 	(obj:0)
V_1_20                                              1 	(obj:0)
ABS_V_1_20                                          1 	(obj:0)
VALUE_4_1_1_3                                      -1 	(obj:0)
W_1_3                                               1 	(obj:0)
V_2_0                                               1 	(obj:0)
ABS_W_1_3                                           1 	(obj:0)
W_1_4                                               1 	(obj:0)
ABS_W_1_4                                           1 	(obj:0)
W_1_5                                               1 	(obj:0)
ABS_W_1_5                                           1 	(obj:0)
W_1_6                                               1 	(obj:0)
ABS_W_1_6                                           1 	(obj:0)
W_1_7                                              -1 	(obj:0)
ABS_ALT_U_1_13                                      1 	(obj:1)
ABS_ALT_U_1_14                                      1 	(obj:1)
ABS_W_1_7                                           1 	(obj:0)
W_1_8                                               1 	(obj:0)
ABS_W_1_8                                           1 	(obj:0)
W_1_9                                               1 	(obj:0)
ABS_W_1_9                                           1 	(obj:0)
W_1_10                                              1 	(obj:0)
ABS_V_2_0                                           1 	(obj:0)
ABS_W_1_10                                          1 	(obj:0)
W_1_11                                              1 	(obj:0)
ABS_W_1_11                                          1 	(obj:0)
W_1_12                                              1 	(obj:0)
ABS_W_1_12                                          1 	(obj:0)
W_1_13                                              1 	(obj:0)
ABS_W_1_13                                          1 	(obj:0)
W_1_18                                              1 	(obj:0)
ABS_W_1_18                                          1 	(obj:0)
W_1_19                                              1 	(obj:0)
ABS_W_1_19                                          1 	(obj:0)
VALUE_4_1_1_20                                      1 	(obj:0)
W_1_20                                              1 	(obj:0)
ABS_W_1_20                                          1 	(obj:0)
W_2_0                                               1 	(obj:0)
ABS_ALT_U_1_15                                      1 	(obj:1)
ABS_ALT_U_1_16                                      1 	(obj:1)
ABS_W_2_0                                           1 	(obj:0)
W_2_2                                              -1 	(obj:0)
V_2_2                                              -1 	(obj:0)
ABS_W_2_2                                           1 	(obj:0)
ABS_V_2_2                                           1 	(obj:0)
U_0_3                                               1 	(obj:0)
ABS_ALT_U_1_17                                      1 	(obj:1)
ABS_ALT_U_1_18                                      1 	(obj:1)
W_2_15                                              1 	(obj:0)
ABS_W_2_15                                          1 	(obj:0)
W_2_16                                             -1 	(obj:0)
ABS_W_2_16                                          1 	(obj:0)
W_2_17                                             -1 	(obj:0)
ABS_W_2_17                                          1 	(obj:0)
W_2_18                                              1 	(obj:0)
ABS_U_0_3                                           1 	(obj:0)
ABS_W_2_18                                          1 	(obj:0)
ABS_ALT_U_1_19                                      1 	(obj:1)
W_3_10                                             -1 	(obj:0)
ABS_W_3_10                                          1 	(obj:0)
ABS_ALT_U_1_6                                       1 	(obj:1)
ABS_ALT_U_1_7                                       1 	(obj:1)
ABS_ALT_U_1_8                                       1 	(obj:1)
ABS_ALT_U_1_9                                       1 	(obj:1)
VALUE_4_1_5_20                                     -1 	(obj:0)
ABS_ALT_U_2_0                                       1 	(obj:1)
VALUE_4_1_6_20                                      1 	(obj:0)
VALUE_4_1_7_20                                      1 	(obj:0)
ABS_ALT_U_2_2                                       1 	(obj:1)
ABS_ALT_U_2_3                                       1 	(obj:1)
ABS_ALT_U_2_4                                       1 	(obj:1)
ABS_ALT_U_2_5                                       1 	(obj:1)
ABS_ALT_U_2_6                                       1 	(obj:1)
ABS_ALT_U_3_16                                      1 	(obj:1)
V_3_4                                              -1 	(obj:0)
ABS_V_3_4                                           1 	(obj:0)
ABS_ALT_U_4_20                                      1 	(obj:1)
ABS_ALT_U_4_3                                       1 	(obj:1)
V_4_8                                               1 	(obj:0)
ABS_V_4_8                                           1 	(obj:0)
V_4_9                                              -1 	(obj:0)
ABS_V_4_9                                           1 	(obj:0)
ABS_ALT_U_5_8                                       1 	(obj:1)
V_5_14                                             -1 	(obj:0)
ABS_V_5_14                                          1 	(obj:0)
ABS_ALT_U_6_8                                       1 	(obj:1)
V_6_14                                              1 	(obj:0)
ABS_V_6_14                                          1 	(obj:0)
V_7_14                                              1 	(obj:0)
ABS_V_7_14                                          1 	(obj:0)
V_8_1                                               1 	(obj:0)
ABS_V_8_1                                           1 	(obj:0)
U_5_8                                              -1 	(obj:0)
ABS_U_5_8                                           1 	(obj:0)
ABS_ALT_U_7_8                                       1 	(obj:1)
U_1_6                                               1 	(obj:0)
ABS_U_1_6                                           1 	(obj:0)
U_1_7                                               1 	(obj:0)
ABS_U_1_7                                           1 	(obj:0)
ABS_ALT_U_8_1                                       1 	(obj:1)
U_1_8                                               1 	(obj:0)
ABS_U_1_8                                           1 	(obj:0)
U_1_9                                               1 	(obj:0)
ABS_U_1_9                                           1 	(obj:0)
U_1_10                                              1 	(obj:0)
ABS_U_1_10                                          1 	(obj:0)
U_1_11                                              1 	(obj:0)
ABS_U_1_11                                          1 	(obj:0)
U_1_12                                              1 	(obj:0)
ABS_U_1_12                                          1 	(obj:0)
U_1_13                                             -1 	(obj:0)
ABS_U_1_13                                          1 	(obj:0)
U_1_14                                              1 	(obj:0)
ABS_U_1_14                                          1 	(obj:0)
U_1_15                                              1 	(obj:0)
ABS_U_1_15                                          1 	(obj:0)
U_1_16                                              1 	(obj:0)
ABS_U_1_16                                          1 	(obj:0)
U_1_17                                              1 	(obj:0)
ABS_U_1_17                                          1 	(obj:0)
U_1_18                                              1 	(obj:0)
ABS_U_1_18                                          1 	(obj:0)
U_1_19                                              1 	(obj:0)
ABS_U_1_19                                          1 	(obj:0)
U_2_0                                               1 	(obj:0)
ABS_U_2_0                                           1 	(obj:0)
U_2_2                                              -1 	(obj:0)
ABS_U_2_2                                           1 	(obj:0)
U_2_3                                               1 	(obj:0)
ABS_U_2_3                                           1 	(obj:0)
U_2_4                                              -1 	(obj:0)
ABS_U_2_4                                           1 	(obj:0)
U_2_5                                              -1 	(obj:0)
ABS_U_2_5                                           1 	(obj:0)
U_2_6                                               1 	(obj:0)
ABS_U_2_6                                           1 	(obj:0)
VALUE_5_4_1_8                                      -1 	(obj:0)
U_3_16                                             -1 	(obj:0)
ABS_U_3_16                                          1 	(obj:0)
U_6_8                                               1 	(obj:0)
ABS_U_6_8                                           1 	(obj:0)
VALUE_6_4_1_8                                       1 	(obj:0)
ABS_ALT_V_0_9                                       1 	(obj:1)
ABS_ALT_V_1_12                                      1 	(obj:1)
ABS_ALT_V_1_13                                      1 	(obj:1)
ABS_ALT_V_1_14                                      1 	(obj:1)
ABS_ALT_V_1_15                                      1 	(obj:1)
ABS_ALT_V_1_16                                      1 	(obj:1)
ABS_ALT_V_1_17                                      1 	(obj:1)
U_7_8                                               1 	(obj:0)
ABS_U_7_8                                           1 	(obj:0)
ABS_ALT_V_1_18                                      1 	(obj:1)
ABS_ALT_V_1_19                                      1 	(obj:1)
ABS_ALT_V_1_20                                      1 	(obj:1)
ABS_ALT_V_1_3                                       1 	(obj:1)
ABS_ALT_V_1_4                                       1 	(obj:1)
ABS_ALT_V_1_5                                       1 	(obj:1)
ABS_ALT_V_1_6                                       1 	(obj:1)
ABS_ALT_V_1_7                                       1 	(obj:1)
ABS_ALT_V_2_0                                       1 	(obj:1)
VALUE_7_4_1_8                                       1 	(obj:0)
U_8_1                                               1 	(obj:0)
ABS_U_8_1                                           1 	(obj:0)
ABS_ALT_V_2_10                                      1 	(obj:1)
ABS_ALT_V_2_11                                      1 	(obj:1)
ABS_ALT_V_2_12                                      1 	(obj:1)
ABS_ALT_V_2_2                                       1 	(obj:1)
ABS_ALT_V_2_9                                       1 	(obj:1)
ABS_ALT_V_3_4                                       1 	(obj:1)
VALUE_8_8_8_1                                       1 	(obj:0)
VALUE_0_1_1_3                                       1 	(obj:0)
VALUE_1_0_1_9                                       1 	(obj:0)
VALUE_1_1_0_15                                      1 	(obj:0)
VALUE_1_1_1_12                                      1 	(obj:0)
VALUE_1_1_1_13                                     -1 	(obj:0)
VALUE_1_1_1_18                                      1 	(obj:0)
VALUE_1_1_1_19                                     -1 	(obj:0)
VALUE_1_1_1_6                                       1 	(obj:0)
VALUE_1_1_1_7                                      -1 	(obj:0)
VALUE_1_1_2_15                                      1 	(obj:0)
VALUE_1_1_2_16                                     -1 	(obj:0)
VALUE_1_1_2_17                                     -1 	(obj:0)
VALUE_1_1_2_18                                      1 	(obj:0)
VALUE_1_1_4_14                                      1 	(obj:0)
VALUE_1_1_4_15                                     -1 	(obj:0)
VALUE_1_2_1_10                                     -1 	(obj:0)
VALUE_1_2_1_11                                     -1 	(obj:0)
VALUE_1_2_1_12                                      1 	(obj:0)
VALUE_1_2_1_9                                       1 	(obj:0)
VALUE_1_2_3_10                                      1 	(obj:0)
VALUE_1_4_1_8                                       1 	(obj:0)
VALUE_1_4_1_9                                      -1 	(obj:0)
VALUE_1_5_4_14                                     -1 	(obj:0)
VALUE_1_6_4_14                                      1 	(obj:0)
VALUE_1_7_4_14                                      1 	(obj:0)
VALUE_2_1_1_3                                       1 	(obj:0)
VALUE_2_1_1_4                                      -1 	(obj:0)
VALUE_2_1_1_5                                      -1 	(obj:0)
VALUE_2_1_1_6                                       1 	(obj:0)
VALUE_2_2_2_0                                       1 	(obj:0)
VALUE_2_2_2_2                                      -1 	(obj:0)
VALUE_2_3_1_4                                       1 	(obj:0)
VALUE_3_1_2_16                                      1 	(obj:0)
ABS_ALT_V_4_8                                       1 	(obj:1)
ABS_ALT_V_4_9                                       1 	(obj:1)
ABS_ALT_V_5_14                                      1 	(obj:1)
ABS_ALT_V_6_14                                      1 	(obj:1)
ABS_ALT_V_7_14                                      1 	(obj:1)
ABS_ALT_V_8_1                                       1 	(obj:1)
